2
35
56
40	36
1	2	20	5	36	2	
2	2	7	14	7	13	
3	2	5	17	16	6	
4	2	7	13	18	3	
5	1	10	5	
6	1	16	7	
7	1	18	10	
8	2	5	9	15	7	
9	2	18	8	23	3	
10	2	6	9	32	3	
11	1	19	5	
12	1	24	2	
13	1	10	9	
14	2	5	10	14	6	
15	2	4	17	11	10	
16	2	13	9	9	8	
17	1	17	5	
18	1	9	9	
19	2	6	17	35	3	
20	1	8	14	
21	2	11	5	25	3	
22	1	36	4	
23	1	20	7	
24	2	10	5	28	3	
25	1	16	5	
26	2	20	9	28	2	
27	2	4	10	36	2	
28	1	5	14	
29	2	4	11	27	4	
30	2	14	9	29	2	
31	1	5	11	
32	2	7	15	14	6	
33	2	24	3	16	3	
34	2	28	4	27	3	
35	2	7	11	34	3	
